; benchmark generated from python API
(set-info :status unknown)
(declare-datatypes ((RealState 0)) (((RMk1 (rval1 Real)) (RMk2 (rval2 Real)))))
 (assert
 (forall ((|v11:0| Real) )(forall ((|v10:1| Real) )(forall ((|v9:2| Real) )(forall ((|v8:3| Real) )(exists ((|v7:4_st| RealState) (val!3608 Real) )(exists ((|v6:5_st| RealState) (val!3609 Real) )(exists ((|v5:6_st| RealState) (val!3610 Real) )(exists ((|v4:7_st| RealState) (val!3611 Real) )(forall ((|v3:8| Real) )(forall ((|v2:9| Real) )(forall ((|v1:10| Real) )(forall ((|v0:11| Real) )(let ((?x2560 (- 14.0)))
 (let ((?x2335 (* 6.0 |v0:11|)))
 (let ((?x1534 (+ (+ (+ (* (- 17.0) (rval2 |v5:6_st|)) (* 4.0 |v11:0|)) (* 13.0 |v3:8|)) ?x2335)))
 (let ((?x1142 (rval2 |v6:5_st|)))
 (let ((?x932 (* 15.0 ?x1142)))
 (let ((?x1614 (+ (+ (+ (* (- 10.0) |v8:3|) (* (- 7.0) |v11:0|)) (* 19.0 |v10:1|)) ?x932)))
 (let ((?x3010 (- 1.0)))
 (let ((?x542 (- 15.0)))
 (let ((?x2340 (* ?x542 |v9:2|)))
 (let ((?x53 (+ (+ (+ (* (- 16.0) (rval2 |v7:4_st|)) (* 2.0 |v8:3|)) (* 14.0 ?x1142)) ?x2340)))
 (let ((?x978 (- 19.0)))
 (let ((?x2984 (+ (+ (+ (* 0.0 |v11:0|) (* (- 5.0) (rval2 |v5:6_st|))) (* 0.0 ?x1142)) (* 3.0 (rval2 |v5:6_st|)))))
 (let (($x2640 (or (or (<= ?x2984 ?x978) (<= ?x53 ?x3010)) (and (<= ?x1614 5.0) (<= ?x1534 ?x2560)))))
 (let ((?x146 (- 13.0)))
 (let ((?x2882 (* ?x3010 |v1:10|)))
 (let ((?x1518 (+ (+ (* (- 18.0) |v11:0|) (* (- 18.0) (rval2 |v5:6_st|))) (* 3.0 |v9:2|))))
 (let ((?x2132 (+ (+ (+ (* (- 5.0) |v0:11|) (* (- 12.0) |v2:9|)) (* 2.0 |v9:2|)) (* (- 16.0) ?x1142))))
 (let ((?x898 (- 5.0)))
 (let ((?x2977 (* ?x898 |v11:0|)))
 (let ((?x1998 (+ (+ (+ (* (- 18.0) (rval2 |v7:4_st|)) (* (- 8.0) |v2:9|)) |v1:10|) ?x2977)))
 (let ((?x2429 (rval2 |v7:4_st|)))
 (let ((?x2990 (* 19.0 ?x2429)))
 (let ((?x602 (+ (+ (+ (* 14.0 (rval2 |v5:6_st|)) (* 0.0 |v9:2|)) (* 10.0 |v2:9|)) ?x2990)))
 (let ((?x798 (- 6.0)))
 (let ((?x2049 (+ (+ (+ ?x932 (* (- 4.0) |v8:3|)) (* (- 3.0) (rval2 |v5:6_st|))) (* 14.0 |v8:3|))))
 (let ((?x2932 (- 7.0)))
 (let ((?x1843 (* ?x2932 ?x2429)))
 (let ((?x2845 (+ (+ (+ (* (- 10.0) |v9:2|) (* 14.0 |v11:0|)) (* 5.0 ?x2429)) ?x1843)))
 (let (($x354 (and (or (<= ?x2845 12.0) (<= ?x2049 ?x798)) (or (<= ?x602 6.0) (<= ?x1998 14.0)))))
 (let ((?x3167 (- 16.0)))
 (let ((?x924 (- 9.0)))
 (let ((?x2877 (* ?x924 |v11:0|)))
 (let ((?x3146 (+ (+ (+ (* ?x798 |v11:0|) (* (- 2.0) |v10:1|)) (* (- 18.0) ?x1142)) ?x2877)))
 (let ((?x3066 (+ (+ (+ (* 9.0 |v3:8|) (* (- 18.0) |v0:11|)) (* ?x146 (rval2 |v4:7_st|))) (* 17.0 |v9:2|))))
 (let ((?x2732 (- 17.0)))
 (let ((?x3060 (* ?x2732 |v2:9|)))
 (let ((?x439 (+ (+ (+ (* 0.0 |v9:2|) (* 8.0 ?x1142)) (* ?x798 (rval2 |v5:6_st|))) ?x3060)))
 (let ((?x2073 (* 9.0 |v0:11|)))
 (let (($x2750 (<= (+ (+ (+ (* ?x798 |v0:11|) (* ?x2932 (rval2 |v4:7_st|))) (* ?x3010 |v2:9|)) ?x2073) 19.0)))
 (let (($x1049 (and (or $x2750 (<= ?x439 11.0)) (or (<= ?x3066 13.0) (<= ?x3146 ?x3167)))))
 (let ((?x1914 (* 8.0 ?x1142)))
 (let ((?x1841 (- 4.0)))
 (let ((?x378 (* ?x1841 |v1:10|)))
 (let (($x2145 (<= (+ (+ (+ (* (- 10.0) |v9:2|) (* (- 18.0) |v8:3|)) ?x378) ?x1914) ?x798)))
 (let (($x1098 (<= (+ (+ (+ (* 12.0 |v3:8|) (* 6.0 |v1:10|)) ?x1914) (* 19.0 |v0:11|)) 19.0)))
 (let ((?x2419 (* 14.0 ?x2429)))
 (let ((?x2402 (* 13.0 |v11:0|)))
 (let ((?x1322 (+ (+ (+ (* (- 20.0) (rval2 |v5:6_st|)) (* (- 12.0) |v0:11|)) ?x2402) ?x2419)))
 (let ((?x2406 (- 18.0)))
 (let ((?x563 (* ?x146 |v11:0|)))
 (let (($x1570 (and (<= (+ (+ (+ (* 14.0 |v10:1|) ?x563) (* ?x978 |v2:9|)) ?x563) ?x2406) (<= ?x1322 2.0))))
 (let ((?x149 (* 16.0 |v0:11|)))
 (let ((?x1953 (+ (+ (+ (* (- 10.0) |v11:0|) (* 2.0 (rval2 |v4:7_st|))) (* 9.0 |v10:1|)) ?x149)))
 (let ((?x368 (* 5.0 |v1:10|)))
 (let (($x890 (<= (+ (+ (+ (* 13.0 |v9:2|) (* ?x542 |v1:10|)) (* ?x2732 |v1:10|)) ?x368) 0.0)))
 (let ((?x1032 (rval2 |v5:6_st|)))
 (let ((?x907 (* 18.0 ?x1032)))
 (let (($x2458 (<= (+ (+ (+ (* ?x2560 |v11:0|) (* ?x2406 ?x1032)) (* 12.0 |v9:2|)) ?x907) ?x3010)))
 (let ((?x2119 (* 9.0 ?x2429)))
 (let (($x732 (<= (+ (+ (+ (* ?x542 |v3:8|) (* 2.0 |v9:2|)) (* 18.0 |v10:1|)) ?x2119) ?x542)))
 (let (($x1560 (and (or (and $x732 $x2458) (and $x890 (<= ?x1953 ?x924))) (and $x1570 (and $x1098 $x2145)))))
 (let (($x1565 (and (and $x1560 (and $x1049 $x354)) (or (<= ?x2132 19.0) (and (<= (+ ?x1518 ?x2882) ?x146) $x2640)))))
 (let ((?x2511 (+ (+ (+ (* 6.0 ?x1142) (* 3.0 ?x2429)) (* (- 12.0) |v8:3|)) (* ?x2932 ?x1032))))
 (let ((?x40 (* 14.0 |v2:9|)))
 (let (($x1878 (<= (+ (+ (+ (* (- 3.0) |v2:9|) (* ?x2560 |v9:2|)) (* 6.0 |v9:2|)) ?x40) ?x2406)))
 (let ((?x2474 (* 12.0 |v8:3|)))
 (let (($x2376 (<= (+ (+ (+ (* 9.0 |v9:2|) (* ?x1841 |v8:3|)) (* ?x798 |v10:1|)) ?x2474) ?x542)))
 (let ((?x2986 (+ (+ (+ (* 17.0 |v10:1|) (* (- 11.0) |v2:9|)) (* 17.0 |v8:3|)) (* 3.0 ?x1142))))
 (let ((?x2546 (* ?x3167 |v0:11|)))
 (let ((?x2883 (+ (+ (+ (* (- 11.0) |v8:3|) (* ?x1841 (rval2 |v4:7_st|))) (* 20.0 |v1:10|)) ?x2546)))
 (let ((?x638 (rval2 |v4:7_st|)))
 (let ((?x84 (* 5.0 ?x638)))
 (let (($x1649 (<= (+ (+ (+ (* (- 2.0) ?x1142) (* 17.0 ?x1142)) (* ?x924 |v0:11|)) ?x84) 8.0)))
 (let ((?x557 (+ (+ (+ (* 14.0 ?x1142) (* (- 11.0) ?x2429)) (* ?x2406 |v2:9|)) (* 5.0 |v9:2|))))
 (let (($x3211 (<= (+ (+ (+ (* ?x3010 ?x638) ?x2340) (* ?x1841 |v9:2|)) (* ?x3010 |v10:1|)) ?x2732)))
 (let (($x1337 (or (and (and $x3211 (<= ?x557 ?x2406)) (or $x1649 (<= ?x2883 ?x924))) (or (or (<= ?x2986 ?x2732) $x2376) (and $x1878 (<= ?x2511 9.0))))))
 (let ((?x977 (* 7.0 |v9:2|)))
 (let ((?x1694 (+ (+ (+ (* (- 20.0) ?x1032) (* 0.0 |v1:10|)) (* (- 11.0) |v1:10|)) ?x977)))
 (let ((?x2734 (+ (+ (+ (* ?x898 |v0:11|) (* 8.0 |v2:9|)) (* ?x3167 |v8:3|)) (* ?x898 |v10:1|))))
 (let ((?x2023 (* (- 8.0) |v2:9|)))
 (let (($x2889 (<= (+ (+ (+ (* 14.0 |v11:0|) (* 10.0 ?x638)) (* ?x924 |v3:8|)) ?x2023) 15.0)))
 (let ((?x1384 (+ (+ (+ (* (- 11.0) ?x1032) (* (- 20.0) ?x1142)) (* 14.0 |v3:8|)) ?x2977)))
 (let ((?x1188 (+ (+ (+ (* 16.0 |v9:2|) (* 18.0 |v11:0|)) (* 11.0 ?x1032)) (* (- 12.0) |v10:1|))))
 (let (($x407 (or (or (<= ?x1188 17.0) (<= ?x1384 6.0)) (and $x2889 (<= ?x2734 ?x1841)))))
 (let ((?x2488 (* 7.0 |v11:0|)))
 (let ((?x61 (+ (+ (+ (* 0.0 |v8:3|) (* (- 20.0) |v3:8|)) (* 18.0 ?x638)) ?x2488)))
 (let ((?x1085 (- 11.0)))
 (let ((?x66 (* ?x3167 |v2:9|)))
 (let (($x3154 (<= (+ (+ (+ (* ?x542 |v10:1|) (* 0.0 |v8:3|)) (* 18.0 ?x2429)) ?x66) ?x1085)))
 (let ((?x3108 (* ?x898 |v0:11|)))
 (let (($x454 (<= (+ (+ (+ (* (- 2.0) |v3:8|) (* ?x542 ?x2429)) (* ?x542 |v1:10|)) ?x3108) 5.0)))
 (let ((?x1734 (+ (+ (+ (* 5.0 |v8:3|) (* (- 10.0) ?x638)) (* 18.0 |v10:1|)) (* 0.0 |v10:1|))))
 (let (($x2140 (<= (+ (+ (+ ?x2877 (* 17.0 ?x1142)) (* 14.0 |v9:2|)) (* 0.0 ?x1032)) 9.0)))
 (let (($x1287 (and (<= (+ (+ (+ (* 20.0 |v11:0|) (* ?x2406 |v2:9|)) |v3:8|) ?x1843) ?x3010) $x2140)))
 (let ((?x3158 (+ (+ (+ (* ?x3010 ?x1142) (* ?x542 ?x1032)) (* 6.0 |v8:3|)) (* 19.0 |v8:3|))))
 (let (($x927 (or (<= ?x3158 14.0) (<= (+ (+ (+ (* 11.0 ?x638) |v2:9|) (* 4.0 |v11:0|)) ?x977) ?x1085))))
 (let ((?x2826 (* 6.0 |v8:3|)))
 (let (($x1483 (<= (+ (+ (+ (* 5.0 |v3:8|) (* 11.0 |v11:0|)) (* ?x1085 |v8:3|)) ?x2826) 1.0)))
 (let (($x2201 (<= (+ (+ (+ (* (- 12.0) ?x1032) ?x2882) (* 8.0 |v10:1|)) (* ?x798 |v11:0|)) ?x3167)))
 (let (($x571 (<= (+ (+ (+ ?x2340 (* 14.0 |v1:10|)) (* 7.0 |v2:9|)) (* 18.0 |v2:9|)) 1.0)))
 (let ((?x489 (- 12.0)))
 (let ((?x3208 (* ?x1085 |v3:8|)))
 (let (($x1709 (<= (+ (+ (+ (* 14.0 |v9:2|) (* 2.0 |v3:8|)) (* 10.0 |v10:1|)) ?x3208) ?x489)))
 (let (($x817 (or (or (or (or $x1709 $x571) (or $x2201 $x1483)) (or $x927 $x1287)) (and (or (and (<= ?x1734 ?x3010) $x454) (or $x3154 (<= ?x61 ?x3167))) $x407))))
 (let (($x3027 (not (= |v4:7_st| (RMk1 val!3611)))))
 (let (($x820 (not (= |v5:6_st| (RMk1 val!3610)))))
 (let (($x1286 (not (= |v6:5_st| (RMk1 val!3609)))))
 (let (($x2483 (not (= |v7:4_st| (RMk1 val!3608)))))
 (and $x2483 $x1286 $x820 $x3027 (or (and $x817 (or (<= ?x1694 13.0) $x1337)) $x1565)))))))))))))))))))))))))))))))))))))))))))))))))))))))))))))))))))))))))))))))))))))))))))))))))))))))))))))))
 )
 )
 )
 )
 )
 )
 )
 )
 )
 )
 )
 )
(check-sat)
